p cnf 22 8
a 1 2 0
e 3 0
a 4 5 0
e 6 0
a 7 0
e 8 9 10 11 12 0
a 13 0
e 14 0
a 15 0
e 16 0
a 17 18 19 20 0
e 21 22 0
3 -9 0
-20 -22 13 0
-10 20 -22 0
-5 -3 1 -11 0
8 4 -11 5 15 0
12 -1 -13 14 3 0
-2 -14 -10 -9 -6 0
4 -5 -18 -12 -6 0
